! ENGRAD PAL6 B97-3c TIGHTSCF Grid4 FinalGrid6
* xyzfile 0 1 dps-00001.xyz

